5 5
1 1 4 79 0 11 3 7 2 12
0 38 2 54 1 67 4 53 3 90
0 94 1 32 4 45 2 51 3 37
1 59 4 54 2 18 3 1 0 21
1 28 0 16 2 48 4 28 3 22
-1
0 1 2 3 5
0 1 5
0 2 4 5
0 2 3 4 5
0 1 3 5
-2
1 125 144 167
38 332
172 339 297
142 138 189 183
36 97 172

356 7
5 21 2 10 19
0 20 15 7 11
6 22 17 13 4
18 24 3 9 14
1 16 23 8 12
